DIMENSION: 8
EDGE_WEIGHT_TYPE: EXPLICIT
EDGE_WEIGHT_FORMAT: FULL_MATRIX
EDGE_WEIGHT_SECTION:
32767 32767 70 32767 33 32767 32767 32767 
32767 32767 32767 62 99 32767 15 33 
70 32767 32767 32767 32767 97 16 8 
32767 62 32767 32767 82 70 8 32767 
33 99 32767 82 32767 44 32767 32767 
32767 32767 97 70 44 32767 40 46 
32767 15 16 8 32767 40 32767 18 
32767 33 8 32767 32767 46 18 32767 
EOF